; Start decls (1)
(declare-fun f_ackermann!0 () (_ BitVec 32))
; End decls
; Start constraints (8)
(assert (not (fp.isNaN ((_ to_fp 8 24) f_ackermann!0))))
(assert (let ((a!1 (fp.mul roundNearestTiesToEven
                   ((_ to_fp 11 53)
                     roundNearestTiesToEven
                     (fp.abs ((_ to_fp 8 24) f_ackermann!0)))
                   ((_ to_fp 11 53) #x3fefae147ae147ae))))
  (not (fp.isNaN a!1))))
(assert (let ((a!1 ((_ to_fp 11 53)
             roundNearestTiesToEven
             (fp.sqrt roundNearestTiesToEven
                      (fp.mul roundNearestTiesToEven
                              ((_ to_fp 8 24) f_ackermann!0)
                              ((_ to_fp 8 24) f_ackermann!0))))))
  (not (fp.isNaN a!1))))
(assert (let ((a!1 (fp.mul roundNearestTiesToEven
                   ((_ to_fp 11 53)
                     roundNearestTiesToEven
                     (fp.abs ((_ to_fp 8 24) f_ackermann!0)))
                   ((_ to_fp 11 53) #x3fefae147ae147ae)))
      (a!2 ((_ to_fp 11 53)
             roundNearestTiesToEven
             (fp.sqrt roundNearestTiesToEven
                      (fp.mul roundNearestTiesToEven
                              ((_ to_fp 8 24) f_ackermann!0)
                              ((_ to_fp 8 24) f_ackermann!0))))))
  (not (fp.gt a!1 a!2))))
(assert (let ((a!1 (fp.isNaN ((_ to_fp 11 53)
                       roundNearestTiesToEven
                       (fp.abs ((_ to_fp 8 24) f_ackermann!0))))))
  (not a!1)))
(assert (let ((a!1 ((_ to_fp 11 53)
             roundNearestTiesToEven
             (fp.sqrt roundNearestTiesToEven
                      (fp.mul roundNearestTiesToEven
                              ((_ to_fp 8 24) f_ackermann!0)
                              ((_ to_fp 8 24) f_ackermann!0))))))
  (not (fp.isNaN (fp.mul roundNearestTiesToEven
                         a!1
                         ((_ to_fp 11 53) #x3fefae147ae147ae))))))
(assert (let ((a!1 ((_ to_fp 11 53)
             roundNearestTiesToEven
             (fp.sqrt roundNearestTiesToEven
                      (fp.mul roundNearestTiesToEven
                              ((_ to_fp 8 24) f_ackermann!0)
                              ((_ to_fp 8 24) f_ackermann!0))))))
(let ((a!2 (fp.lt ((_ to_fp 11 53)
                    roundNearestTiesToEven
                    (fp.abs ((_ to_fp 8 24) f_ackermann!0)))
                  (fp.mul roundNearestTiesToEven
                          a!1
                          ((_ to_fp 11 53) #x3fefae147ae147ae)))))
  (not a!2))))
(assert (let ((a!1 (fp.eq (fp.abs ((_ to_fp 8 24) f_ackermann!0))
                  (fp.sqrt roundNearestTiesToEven
                           (fp.mul roundNearestTiesToEven
                                   ((_ to_fp 8 24) f_ackermann!0)
                                   ((_ to_fp 8 24) f_ackermann!0))))))
  (not a!1)))
; End constraints
(check-sat)
(exit)
